data/solutions/recovery/degenerate/intermediate/binding/degenerate_intermediate_instance23/50.sol
Elapsed time: 0.05
Upper bound: 245650992.0
Planning weighted value: 8.779656171e+11
C[0]=245650992.0
C[1]=242540652.0
C[2]=241511795.0
C[3]=238185068.0
C[4]=225344350.0
C[5]=218373801.0
C[6]=214349820.0
C[7]=214293545.0
C[8]=214180000.0
C[9]=214101196.0
C[10]=213874681.0
C[11]=0.0
y[0]=4
y[1]=0
y[2]=7
y[3]=6
y[4]=1
y[5]=10
y[6]=0
y[7]=8
y[8]=7
y[9]=1
y[10]=5
y[11]=2
y[12]=3
y[13]=1
y[14]=3
y[15]=9
y[16]=4
y[17]=9
y[18]=8
y[19]=4
y[20]=3
y[21]=9
y[22]=7
y[23]=5
y[24]=2
y[25]=3
y[26]=8
y[27]=3
y[28]=5
y[29]=3
y[30]=0
y[31]=6
y[32]=6
y[33]=9
y[34]=5
y[35]=0
y[36]=0
y[37]=8
y[38]=1
y[39]=0
y[40]=10
y[41]=10
y[42]=7
y[43]=9
y[44]=10
y[45]=4
y[46]=2
y[47]=1
y[48]=7
y[49]=0
y[50]=0
y[51]=2
y[52]=8
y[53]=7
y[54]=10
y[55]=4
y[56]=7
y[57]=5
y[58]=0
y[59]=2
y[60]=1
y[61]=3
y[62]=4
y[63]=6
y[64]=2
y[65]=5
y[66]=9
y[67]=4
y[68]=6
y[69]=10
y[70]=1
y[71]=1
y[72]=7
y[73]=8
y[74]=10
y[75]=4
y[76]=2
y[77]=1
