data/solutions/recovery/degenerate/intermediate/binding/degenerate_intermediate_instance23/50.log

Log started (V12.6.3.0) Sun Apr 22 12:29:36 2018

New value for default parallel thread count: 1

Problem '/tmp/tmp3aKajW.pyomo.lp' read.
Read time = 0.02 sec. (0.86 ticks)

Problem name         : /tmp/tmp3aKajW.pyomo.lp
Objective sense      : Minimize
Variables            :     950  [Nneg: 1,  Binary: 936,  General Integer: 13]
Objective nonzeros   :       1
Linear constraints   :     182  [Less: 90,  Equal: 92]
  Nonzeros           :   61975
  RHS nonzeros       :      79

Variables            : Min LB: 0.000000         Max UB: 1.000000       
Objective nonzeros   : Min   : 1.000000         Max   : 1.000000       
Linear constraints   :
  Nonzeros           : Min   : 1.000000         Max   : 6.145599e+07   
  RHS nonzeros       : Min   : 1.000000         Max   : 1.000000       
Tried aggregator 1 time.
MIP Presolve eliminated 153 rows and 861 columns.
Reduced MIP has 29 rows, 89 columns, and 187 nonzeros.
Reduced MIP has 77 binaries, 12 generals, 0 SOSs, and 0 indicators.
Presolve time = 0.00 sec. (3.68 ticks)
Found incumbent of value 4.7413238e+08 after 0.00 sec. (5.20 ticks)
Probing time = 0.00 sec. (0.23 ticks)
Tried aggregator 1 time.
Reduced MIP has 29 rows, 89 columns, and 187 nonzeros.
Reduced MIP has 77 binaries, 12 generals, 0 SOSs, and 0 indicators.
Presolve time = 0.00 sec. (0.14 ticks)
Probing time = 0.00 sec. (0.23 ticks)
Clique table members: 7.
MIP emphasis: balance optimality and feasibility.
MIP search method: dynamic search.
Parallel mode: none, using 1 thread.
Root relaxation solution time = 0.00 sec. (0.24 ticks)

        Nodes                                         Cuts/
   Node  Left     Objective  IInf  Best Integer    Best Bound    ItCnt     Gap

*     0+    0                       4.74132e+08   2.25255e+08            52.49%
      0     0   2.25673e+08    27   4.74132e+08   2.25673e+08       63   52.40%
      0     0   2.26403e+08    28   4.74132e+08      Fract: 4       79   52.25%
      0     0   2.26403e+08    17   4.74132e+08      Fract: 1       86   52.25%
*     0+    0                       2.70480e+08   2.26403e+08            16.30%
      0     2   2.26403e+08    17   2.70480e+08   2.26403e+08       86   16.30%
Elapsed time = 0.01 sec. (9.15 ticks, tree = 0.01 MB, solutions = 2)
*    40+   25                       2.64515e+08   2.26403e+08            14.41%
*    50+   12                       2.50017e+08   2.26403e+08             9.44%
*    58    12      integral     0   2.48145e+08   2.26403e+08      638    8.76%
*    60+   12                       2.45651e+08   2.26403e+08             7.84%

Gomory fractional cuts applied:  3

Root node processing (before b&c):
  Real time             =    0.01 sec. (9.20 ticks)
Sequential b&c:
  Real time             =    0.00 sec. (2.97 ticks)
                          ------------
Total (root+branch&cut) =    0.01 sec. (12.16 ticks)

Solution pool: 6 solutions saved.

MIP - Integer optimal solution:  Objective =  2.4565099200e+08
Solution time =    0.01 sec.  Iterations = 642  Nodes = 72
Deterministic time = 12.17 ticks  (858.80 ticks/sec)


Incumbent solution written to file '/tmp/tmpKDWT88.cplex.sol'.
